15
1 193 330 344 626 441 524 616 760 834 921 958 1048 1140 1275 
193 1 139 429 735 413 453 569 613 692 896 870 969 1065 1230 
330 139 1 509 814 422 423 549 506 589 878 806 908 1006 1191 
344 429 509 1 307 244 366 390 701 750 629 753 822 901 991 
626 735 814 307 1 469 575 528 915 943 606 838 874 929 941 
441 413 422 244 469 1 123 176 463 507 488 533 615 703 835 
524 453 423 366 575 123 1 128 344 385 455 435 526 619 778 
616 569 549 390 528 176 128 1 401 418 330 364 441 528 664 
760 613 506 701 915 463 344 401 1 85 610 387 489 582 810 
834 692 589 750 943 507 385 418 85 1 580 327 425 514 748 
921 896 878 629 606 488 455 330 610 580 1 308 295 329 363 
958 870 806 753 838 533 435 364 387 327 308 1 106 204 424 
1048 969 908 822 874 615 526 441 489 425 295 106 1 99 324 
1140 1065 1006 901 929 703 619 528 582 514 329 204 99 1 244 
1275 1230 1191 991 941 835 778 664 810 748 363 424 324 244 1 
